(set-logic QF_SLIA)
(set-option :produce-models true)
(declare-const X String)
; Logger\w+gdvsotuqwsg\u{2f}dxt\.hd\dovplLogtraffbest\x2EbizAdToolsLoggedsidesearch\.dropspam\.com
(assert (not (str.in_re X (re.++ (str.to_re "Logger") (re.+ (re.union (re.range "0" "9") (re.range "A" "Z") (re.range "a" "z") (str.to_re "_"))) (str.to_re "gdvsotuqwsg/dxt.hd") (re.range "0" "9") (str.to_re "ovplLogtraffbest.bizAdToolsLoggedsidesearch.dropspam.com\u{0a}")))))
; ^\(?([0-9]{3})\)?[\s\.\-]*([0-9]{3})[\s\.\-]*([0-9]{4})$
(assert (not (str.in_re X (re.++ (re.opt (str.to_re "(")) ((_ re.loop 3 3) (re.range "0" "9")) (re.opt (str.to_re ")")) (re.* (re.union (str.to_re ".") (str.to_re "-") (str.to_re " ") (str.to_re "\u{09}") (str.to_re "\u{0a}") (str.to_re "\u{0c}") (str.to_re "\u{0d}"))) ((_ re.loop 3 3) (re.range "0" "9")) (re.* (re.union (str.to_re ".") (str.to_re "-") (str.to_re " ") (str.to_re "\u{09}") (str.to_re "\u{0a}") (str.to_re "\u{0c}") (str.to_re "\u{0d}"))) ((_ re.loop 4 4) (re.range "0" "9")) (str.to_re "\u{0a}")))))
; X-Mailer\u{3a}Referer\x3Asponsor2\.ucmore\.com
(assert (not (str.in_re X (str.to_re "X-Mailer:\u{13}Referer:sponsor2.ucmore.com\u{0a}"))))
(assert (> (str.len X) 10))
(check-sat)
